44 44
7 7
16 8
9 5
5 8
31 2
14 21
17 14
41 6
37 17
29 5
34 9
2 1
32 3
22 19
35 22
13 7
24 12
3 10
26 22
36 4
38 19
11 15
44 6
10 11
27 2
6 13
30 3
39 10
21 16
18 11
15 13
19 15
43 21
4 18
42 9
33 18
25 16
28 14
1 17
40 12
23 4
12 20
20 1
8 20
